%%%%%%%%%%%%%%%%%%%%%%%%%%%%%%%%%%%%%%%%%%%%%%%%%%%%%%%%%%%%%%%%%%%%%%%%%
%FILE DATA:	Soccer Computational Problem for MiniZinc Models
%AUTHORS:	Robinson Duque, Alejandro Arbelaez, Juan Francisco Díaz
%CONTACT:  	robinson.duque@correounivalle.edu.co 
%LAST UPDATE:	May, 2018 
%ROUND ROBIN:2
%TEAMS:20
%PRESENT FIXTURE:28
%FIXTURES TO PLAY:10
%GAMES TO PLAY:100
%%%%%%%%%%%%%%%%%%%%%%%%%%%%%%%%%%%%%%%%%%%%%%%%%%%%%%%%%%%%%%%%%%%%%%%%%
%Number of teams:
n=20;

%For the purpose of our models, we offer two representations of the games to play, namely fixtures and games to play:

%Fixtures to play:
%fixtures=[|0,1,1,1,1,0,0,1,0,0,1,1,1,0,0,1,0,1,0,0
%|1,0,1,1,1,0,1,1,1,0,0,0,1,0,0,0,1,0,0,1
%|1,1,0,0,1,1,1,0,0,0,0,1,1,0,0,0,1,1,0,1
%|1,1,0,0,0,1,0,0,0,1,0,1,0,0,1,1,0,1,1,1
%|1,1,1,0,0,1,1,0,1,0,0,0,0,1,1,0,1,1,0,0
%|0,0,1,1,1,0,1,1,1,1,1,0,1,0,0,0,0,0,1,0
%|0,1,1,0,1,1,0,1,0,1,0,0,0,0,1,1,1,0,1,0
%|1,1,0,0,0,1,1,0,0,0,1,0,1,1,0,0,1,1,1,0
%|0,1,0,0,1,1,0,0,0,0,1,1,0,1,0,1,0,1,1,1
%|0,0,0,1,0,1,1,0,0,0,1,1,1,0,1,1,1,0,1,0
%|1,0,0,0,0,1,0,1,1,1,0,1,0,1,0,1,0,1,0,1
%|1,0,1,1,0,0,0,0,1,1,1,0,0,1,1,0,0,0,1,1
%|1,1,1,0,0,1,0,1,0,1,0,0,0,1,1,1,0,0,0,1
%|0,0,0,0,1,0,0,1,1,0,1,1,1,0,1,0,1,1,1,0
%|0,0,0,1,1,0,1,0,0,1,0,1,1,1,0,1,0,0,1,1
%|1,0,0,1,0,0,1,0,1,1,1,0,1,0,1,0,0,1,0,1
%|0,1,1,0,1,0,1,1,0,1,0,0,0,1,0,0,0,1,1,1
%|1,0,1,1,1,0,0,1,1,0,1,0,0,1,0,1,1,0,0,0
%|0,0,0,1,0,1,1,1,1,1,0,1,0,1,1,0,1,0,0,0
%|0,1,1,1,0,0,0,0,1,0,1,1,1,0,1,1,1,0,0,0|];

%Played Fixtures:
%PlayedFixtures=[|0,1,1,1,1,2,2,1,2,2,1,1,1,2,2,1,2,1,2,2
%|1,0,1,1,1,2,1,1,1,2,2,2,1,2,2,2,1,2,2,1
%|1,1,0,2,1,1,1,2,2,2,2,1,1,2,2,2,1,1,2,1
%|1,1,2,0,2,1,2,2,2,1,2,1,2,2,1,1,2,1,1,1
%|1,1,1,2,0,1,1,2,1,2,2,2,2,1,1,2,1,1,2,2
%|2,2,1,1,1,0,1,1,1,1,1,2,1,2,2,2,2,2,1,2
%|2,1,1,2,1,1,0,1,2,1,2,2,2,2,1,1,1,2,1,2
%|1,1,2,2,2,1,1,0,2,2,1,2,1,1,2,2,1,1,1,2
%|2,1,2,2,1,1,2,2,0,2,1,1,2,1,2,1,2,1,1,1
%|2,2,2,1,2,1,1,2,2,0,1,1,1,2,1,1,1,2,1,2
%|1,2,2,2,2,1,2,1,1,1,0,1,2,1,2,1,2,1,2,1
%|1,2,1,1,2,2,2,2,1,1,1,0,2,1,1,2,2,2,1,1
%|1,1,1,2,2,1,2,1,2,1,2,2,0,1,1,1,2,2,2,1
%|2,2,2,2,1,2,2,1,1,2,1,1,1,0,1,2,1,1,1,2
%|2,2,2,1,1,2,1,2,2,1,2,1,1,1,0,1,2,2,1,1
%|1,2,2,1,2,2,1,2,1,1,1,2,1,2,1,0,2,1,2,1
%|2,1,1,2,1,2,1,1,2,1,2,2,2,1,2,2,0,1,1,1
%|1,2,1,1,1,2,2,1,1,2,1,2,2,1,2,1,1,0,2,2
%|2,2,2,1,2,1,1,1,1,1,2,1,2,1,1,2,1,2,0,2
%|2,1,1,1,2,2,2,2,1,2,1,1,1,2,1,1,1,2,2,0|];

%Games to play:
games=[|2,1|3,1|3,2|4,1|4,2|5,1|5,2|5,3|6,3|6,4|6,5|7,2|7,3|7,5|7,6|8,1|8,2|8,6|8,7|9,2|9,5|9,6|10,4|10,6|10,7|11,1|11,6|11,8|11,9|11,10|12,1|12,3|12,4|12,9|12,10|12,11|13,1|13,2|13,3|13,6|13,8|13,10|14,5|14,8|14,9|14,11|14,12|14,13|15,4|15,5|15,7|15,10|15,12|15,13|15,14|16,1|16,4|16,7|16,9|16,10|16,11|16,13|16,15|17,2|17,3|17,5|17,7|17,8|17,10|17,14|18,1|18,3|18,4|18,5|18,8|18,9|18,11|18,14|18,16|18,17|19,4|19,6|19,7|19,8|19,9|19,10|19,12|19,14|19,15|19,17|20,2|20,3|20,4|20,9|20,11|20,12|20,13|20,15|20,16|20,17|];

%Played Games:
%PlayedGames=[|2,1|3,1|3,2|4,1|4,2|4,3|4,3|5,1|5,2|5,3|5,4|5,4|6,1|6,1|6,2|6,2|6,3|6,4|6,5|7,1|7,1|7,2|7,3|7,4|7,4|7,5|7,6|8,1|8,2|8,3|8,3|8,4|8,4|8,5|8,5|8,6|8,7|9,1|9,1|9,2|9,3|9,3|9,4|9,4|9,5|9,6|9,7|9,7|9,8|9,8|10,1|10,1|10,2|10,2|10,3|10,3|10,4|10,5|10,5|10,6|10,7|10,8|10,8|10,9|10,9|11,1|11,2|11,2|11,3|11,3|11,4|11,4|11,5|11,5|11,6|11,7|11,7|11,8|11,9|11,10|12,1|12,2|12,2|12,3|12,4|12,5|12,5|12,6|12,6|12,7|12,7|12,8|12,8|12,9|12,10|12,11|13,1|13,2|13,3|13,4|13,4|13,5|13,5|13,6|13,7|13,7|13,8|13,9|13,9|13,10|13,11|13,11|13,12|13,12|14,1|14,1|14,2|14,2|14,3|14,3|14,4|14,4|14,5|14,6|14,6|14,7|14,7|14,8|14,9|14,10|14,10|14,11|14,12|14,13|15,1|15,1|15,2|15,2|15,3|15,3|15,4|15,5|15,6|15,6|15,7|15,8|15,8|15,9|15,9|15,10|15,11|15,11|15,12|15,13|15,14|16,1|16,2|16,2|16,3|16,3|16,4|16,5|16,5|16,6|16,6|16,7|16,8|16,8|16,9|16,10|16,11|16,12|16,12|16,13|16,14|16,14|16,15|17,1|17,1|17,2|17,3|17,4|17,4|17,5|17,6|17,6|17,7|17,8|17,9|17,9|17,10|17,11|17,11|17,12|17,12|17,13|17,13|17,14|17,15|17,15|17,16|17,16|18,1|18,2|18,2|18,3|18,4|18,5|18,6|18,6|18,7|18,7|18,8|18,9|18,10|18,10|18,11|18,12|18,12|18,13|18,13|18,14|18,15|18,15|18,16|18,17|19,1|19,1|19,2|19,2|19,3|19,3|19,4|19,5|19,5|19,6|19,7|19,8|19,9|19,10|19,11|19,11|19,12|19,13|19,13|19,14|19,15|19,16|19,16|19,17|19,18|19,18|20,1|20,1|20,2|20,3|20,4|20,5|20,5|20,6|20,6|20,7|20,7|20,8|20,8|20,9|20,10|20,10|20,11|20,12|20,13|20,14|20,14|20,15|20,16|20,17|20,18|20,18|20,19|20,19|];

%Played Games - Win Results:
%% 0  0  0  1  1  0  0  0  0  1  1  0  0  2  2  0  0  0  0  2
%% 0  0  1  1  0  2  1  0  1  1  0  0  1  2  0  0  0  2  0  0
%% 0  0  0  0  0  0  0  0  0  0  0  0  0  0  2  0  1  0  0  0
%% 0  0  0  0  0  0  0  0  0  0  0  0  0  0  0  0  0  0  0  0
%% 0  0  0  0  0  0  0  0  0  0  0  0  0  1  0  0  1  0  0  0
%% 0  0  0  1  1  0  0  0  0  0  1  0  0  2  0  0  0  0  1  0
%% 0  0  0  0  0  0  0  0  0  0  0  0  0  0  0  0  0  0  0  0
%% 1  0  0  0  1  0  0  0  0  2  0  0  1  1  0  0  1  1  0  0
%% 0  0  0  0  0  0  0  0  0  0  0  0  0  0  0  0  0  0  1  0
%% 0  0  0  0  0  0  0  0  0  0  1  0  0  0  0  0  1  0  0  0
%% 0  0  0  0  0  0  0  0  0  0  0  0  0  0  0  0  0  0  0  0
%% 1  1  1  1  1  0  0  1  1  1  0  0  0  0  0  0  0  0  1  0
%% 0  0  1  0  1  1  0  0  0  1  0  0  0  1  0  0  0  0  0  0
%% 0  0  0  0  0  0  0  0  1  0  0  0  0  0  0  0  0  0  1  0
%% 0  0  0  0  0  0  1  0  0  0  0  0  0  0  0  0  0  0  1  0
%% 0  2  0  0  2  1  0  2  1  1  0  2  1  0  0  0  0  1  0  0
%% 0  0  0  0  0  0  1  0  0  0  0  0  0  0  0  0  0  0  0  0
%% 0  0  1  0  0  0  0  0  1  0  1  2  0  0  0  0  0  0  0  0
%% 0  0  0  1  0  0  1  0  0  0  0  0  0  0  0  0  0  0  0  0
%% 0  0  0  0  2  1  0  1  0  2  0  0  0  0  1  0  1  0  0  0
%Played Games - Tie Results:
%% 0  1  1  0  0  2  2  0  2  1  0  0  1  0  0  1  2  1  2  0
%% 1  0  0  0  1  0  0  1  0  1  2  1  0  0  2  0  1  0  2  1
%% 1  0  0  2  1  1  1  2  2  2  2  0  0  2  0  2  0  0  2  1
%% 0  0  2  0  2  0  2  2  2  1  2  0  2  2  1  1  2  1  0  1
%% 0  1  1  2  0  0  1  1  1  2  2  1  1  0  1  0  0  1  2  0
%% 2  0  1  0  0  0  1  1  1  1  0  2  0  0  2  1  2  2  0  1
%% 2  0  1  2  1  1  0  1  2  1  2  2  2  2  0  1  0  2  0  2
%% 0  1  2  2  1  1  1  0  2  0  1  1  0  0  2  0  0  0  1  1
%% 2  0  2  2  1  1  2  2  0  2  1  0  2  0  2  0  2  0  0  1
%% 1  1  2  1  2  1  1  0  2  0  0  0  0  2  1  0  0  2  1  0
%% 0  2  2  2  2  0  2  1  1  0  0  1  2  1  2  1  2  0  2  1
%% 0  1  0  0  1  2  2  1  0  0  1  0  2  1  1  0  2  0  0  1
%% 1  0  0  2  1  0  2  0  2  0  2  2  0  0  1  0  2  2  2  1
%% 0  0  2  2  0  0  2  0  0  2  1  1  0  0  1  2  1  1  0  2
%% 0  2  0  1  1  2  0  2  2  1  2  1  1  1  0  1  2  2  0  0
%% 1  0  2  1  0  1  1  0  0  0  1  0  0  2  1  0  2  0  2  1
%% 2  1  0  2  0  2  0  0  2  0  2  2  2  1  2  2  0  1  1  0
%% 1  0  0  1  1  2  2  0  0  2  0  0  2  1  2  0  1  0  2  2
%% 2  2  2  0  2  0  0  1  0  1  2  0  2  0  0  2  1  2  0  2
%% 0  1  1  1  0  1  2  1  1  0  1  1  1  2  0  1  0  2  2  0
%Played Games - Lose Results:
%% 0  0  0  0  0  0  0  1  0  0  0  1  0  0  0  0  0  0  0  0
%% 0  0  0  0  0  0  0  0  0  0  0  1  0  0  0  2  0  0  0  0
%% 0  1  0  0  0  0  0  0  0  0  0  1  1  0  0  0  0  1  0  0
%% 1  1  0  0  0  1  0  0  0  0  0  1  0  0  0  0  0  0  1  0
%% 1  0  0  0  0  1  0  1  0  0  0  1  1  0  0  2  0  0  0  2
%% 0  2  0  0  0  0  0  0  0  0  0  0  1  0  0  1  0  0  0  1
%% 0  1  0  0  0  0  0  0  0  0  0  0  0  0  1  0  1  0  1  0
%% 0  0  0  0  0  0  0  0  0  0  0  1  0  0  0  2  0  0  0  1
%% 0  1  0  0  0  0  0  0  0  0  0  1  0  1  0  1  0  1  0  0
%% 1  1  0  0  0  0  0  2  0  0  0  1  1  0  0  1  0  0  0  2
%% 1  0  0  0  0  1  0  0  0  1  0  0  0  0  0  0  0  1  0  0
%% 0  0  0  0  0  0  0  0  0  0  0  0  0  0  0  2  0  2  0  0
%% 0  1  0  0  0  0  0  1  0  0  0  0  0  0  0  1  0  0  0  0
%% 2  2  0  0  1  2  0  1  0  0  0  0  1  0  0  0  0  0  0  0
%% 2  0  2  0  0  0  0  0  0  0  0  0  0  0  0  0  0  0  0  1
%% 0  0  0  0  0  0  0  0  0  0  0  0  0  0  0  0  0  0  0  0
%% 0  0  1  0  1  0  0  1  0  1  0  0  0  0  0  0  0  0  0  1
%% 0  2  0  0  0  0  0  1  0  0  0  0  0  0  0  1  0  0  0  0
%% 0  0  0  0  0  1  0  0  1  0  0  1  0  1  1  0  0  0  0  0
%% 2  0  0  0  0  0  0  0  0  0  0  0  0  0  0  0  0  0  0  0

%%Initial points:
iPoints=[46, 49, 30, 23, 23, 35, 24, 40, 25, 23, 24, 42, 35, 23, 27, 54, 25, 34, 27, 42];

%%Initial positions:
%iPositions=[3, 2, 10, 20, 19, 8, 16, 6, 14, 18, 15, 5, 7, 17, 12, 1, 13, 9, 11, 4];

%%Position Constraints:
%numberPositionConstraints=2;

%%Total Fixtures:
%totalFixtures=38;

%%Fixtures to Play:
%fixturesToPlay=10;

%%Position Constraints Built With
%wantedPoints=[0, 0, 3, 0, 3, 1, 3, 1, 1, 1, 0, 3, 0, 0, 3, 0, 3, 1, 3, 1, 3, 1, 0, 3, 3, 3, 0, 1, 3, 1, 3, 0, 1, 1, 1, 1, 1, 0, 3, 0, 3, 3, 1, 3, 0, 1, 1, 0, 3, 0, 1, 1, 3, 1, 0, 3, 0, 1, 3, 1, 1, 0, 0, 3, 3, 0, 0, 3, 1, 3, 3, 0, 0, 0, 1, 0, 0, 0, 0, 0, 1, 1, 0, 0, 0, 0, 3, 0, 1, 0, 0, 3, 3, 0, 1, 3, 1, 0, 1, 3];

%POSITION CONSTRAINTS
%%[|teamID, operator, position|...]
%%operators index:
%%%1 for =  operator
%%%2 for >  operator
%%%3 for >= operator
%%%4 for <  operator
%%%5 for <= operator

positionConstraints=[|11,1,14|8,1,6|];

%SCORE VECTOR CONSTRAINTS
%%[|teamID, operator, wantedPoints|...]
%%operators index:
%%%1 for =  operator
%%%2 for >  operator
%%%3 for >= operator
%%%4 for <  operator
%%%5 for <= operator

%scoreVectorConstraints=[|11,1,39|8,1,52|];

%Instance Features:
%features=T,FP,TF,C,C/T,C/TF,FP/TF,FP/T,FP*C/T,FP*T/C,(C/T)*(FP/TF),Distance,Distance/C,Distance/T,Distance/(C*T)
%values=20,10,38,2,0.1,0.05263157894736842,0.2631578947368421,0.5,1.0,100.0,0.02631578947368421,1,0.5,0.05,0.025



gamesOfEveryTeam=[10,10,10,10,10,10,10,10,10,10,10,10,10,10,10,10,10,10,10,10];
weights=[|56,4,0,40|84,9,0,7|99,0,0,1|46,40,0,14|87,2,0,11|48,27,0,25|60,16,0,24|78,12,0,10|23,7,0,70|45,1,0,54|83,3,0,14|16,34,0,50|48,14,0,38|55,2,0,43|96,0,0,4|9,48,0,43|73,2,0,25|4,31,0,65|68,32,0,0|72,20,0,8|87,0,0,13|94,1,0,5|78,2,0,20|66,25,0,9|38,12,0,50|58,41,0,1|62,38,0,0|14,32,0,54|76,14,0,10|73,22,0,5|36,45,0,19|48,2,0,50|35,17,0,48|62,30,0,8|44,53,0,3|19,1,0,80|83,0,0,17|64,8,0,28|41,24,0,35|97,0,0,3|26,70,0,4|86,7,0,7|45,43,0,12|36,64,0,0|17,12,0,71|22,0,0,78|96,0,0,4|50,7,0,43|5,24,0,71|21,12,0,67|15,19,0,66|49,33,0,18|30,28,0,42|51,34,0,15|13,36,0,51|57,32,0,11|22,5,0,73|80,4,0,16|46,13,0,41|99,0,0,1|48,22,0,30|49,18,0,33|38,55,0,7|97,2,0,1|52,36,0,12|17,10,0,73|73,26,0,1|78,20,0,2|98,2,0,0|65,4,0,31|91,7,0,2|54,7,0,39|83,0,0,17|71,3,0,26|69,17,0,14|41,58,0,1|67,13,0,20|50,38,0,12|0,2,0,98|21,28,0,51|3,39,0,58|15,43,0,42|22,1,0,77|73,5,0,22|46,20,0,34|28,32,0,40|83,3,0,14|24,8,0,68|9,28,0,63|84,1,0,15|49,9,0,42|43,57,0,0|81,14,0,5|5,64,0,31|86,4,0,10|50,21,0,29|69,7,0,24|25,4,0,71|58,22,0,20|3,49,0,48|];